max: 100x12 + 100x13 - 10y1 - 20y2;

-5 <= x12 <= 5;
-2 <= x13 <= 2;
-5 <= x23 <= 5;
-2 <= x24 <= 2;
-5 <= x34 <= 5;

f12 >= -x12;
f12 >= x12;
f12 >= 0;
f13 >= -x13;
f13 >= x13;
f13 >= 0;
f23 >= -x23;
f23 >= x23;
f23 >= 0;
f24 >= -x24;
f24 >= x24;
f24 >= 0;
f34 >= -x34;
f34 >= x34;
f34 >= 0;

x12 = x23 + x24;
x13 + x23 = x34;


1f12 + 2f13 + 1f23 + 2f24 + 3f34  <= 4y1 + 5y2;
1f12 + 2f13 + 2f23 + 1f24 + 4f34  <= 2y1 + 2y2;
5f12 + 0f13 + 0f23 + 0x24 + 6x34  <= 0y1 + 1y2;

y1 >= 0;
y2 >= 0;
